p cnf 107
-1 -20
-2 -24
-3 -27
-4 -4
-5 -30
-6 -34
-7 -38
-8 -4
-8 -5
4 5 8
-9 -6
-9 -7
6 7 9
-10 8
-10 9
-8 -9 10
-11 -1
-11 -2
1 2 11
-12 -3
-12 11
3 -11 12
-13 1
-13 -2
-1 2 13
-14 1
-14 2
-1 -2 14
-15 -1
-15 2
1 -2 15
-16 -13
-16 -15
13 15 16
-17 -12
-17 16
12 -16 17
-18 10
-18 -17
-10 17 18
-19 1
-19 -10
-1 10 19
-20 -18
-20 -19
18 19 20
-21 -3
-21 -13
3 13 21
-22 10
-22 -21
-10 21 22
-23 2
-23 -10
-2 10 23
-24 -22
-24 -23
22 23 24
-25 10
-25 14
-10 -14 25
-26 3
-26 -10
-3 10 26
-27 -25
-27 -26
25 26 27
-28 -4
-28 5
4 -5 28
-29 4
-29 -5
-4 5 29
-30 -28
-30 -29
28 29 30
-31 4
-31 5
-4 -5 31
-32 6
-32 -31
-6 31 32
-33 -6
-33 31
6 -31 33
-34 -32
-34 -33
32 33 34
-35 6
-35 31
-6 -31 35
-36 7
-36 -35
-7 35 36
-37 -7
-37 35
7 -35 37
-38 -36
-38 -37
36 37 38
-39 7
-39 35
-7 -35 39
-40 1
-40 3
-1 -3 40
40
